CMD:
./solvers/bin/cadical --plain --no-reduce -t 1600 ./data/cnfs//6s301rb106/6s301rb106.50.cnf

c --- [ banner ] -------------------------------------------------------------
c 
c CaDiCaL SAT Solver
c Copyright (c) 2016-2024
c A. Biere, M. Fleury, N. Froleyks, K. Fazekas, F. Pollitt, T. Faller
c JKU Linz, University of Freiburg, TU Wien
c 
c Version 2.1.3 5296d3d2a9bf48c154ab2acb5e44625776d821bf
c g++ (Gentoo 12.3.1_p20230526 p2) 12.3.1 20230526 -Wall -Wextra -O3 -DNDEBUG
c Sat Aug 9 07:26:21 PDT 2025 Linux cedar2.int.cedar.computecanada.ca 5.14.0-362.24.2.el9_3.x86_64 x86_64
c 
c --- [ limit ] --------------------------------------------------------------
c 
c setting time limit to 1600 seconds real time (due to '-t 1600')
c 
c --- [ parsing input ] ------------------------------------------------------
c 
c reading DIMACS file from './data/cnfs//6s301rb106/6s301rb106.50.cnf'
c opening file to read './data/cnfs//6s301rb106/6s301rb106.50.cnf'
c found 'p cnf 11033455 31552850' header
c parsed 31552850 clauses in 5.99 seconds process time
c 
c --- [ options ] ------------------------------------------------------------
c 
c   --compact=false                (different from default 'true')
c   --decompose=false              (different from default 'true')
c   --deduplicate=false            (different from default 'true')
c   --elim=false                   (different from default 'true')
c   --probe=false                  (different from default 'true')
c   --reduce=false                 (different from default 'true')
c   --subsume=false                (different from default 'true')
c   --ternary=false                (different from default 'true')
c   --transred=false               (different from default 'true')
c   --vivify=false                 (different from default 'true')
c 
c --- [ solving ] ------------------------------------------------------------
c 
c time measured in process time since initialization
c 
c  seconds    reductions  redundant   irredundant
c          MB     restarts       trail          variables
c            level   conflicts       glue             remaining
c 
c *  6.00 4007  0 0   0    0    0  0% 0 22214739 6443332 58%
c {  6.09 4010  0 0   0    0    0  0% 0 22214739 6443332 58%
c i  6.10 4010 1881 0   0    1    0 42% 0 22214739 6443331 58%
c i  6.11 4010 1882 0   0    2    0 42% 0 22214739 6443330 58%
c i  6.12 4010 1882 0   0    3    0 42% 0 22214739 6443329 58%
c i  6.13 4010 1883 0   1    4    0 42% 0 22214739 6443328 58%
c i  6.14 4010 2121 0   1    6    0 42% 0 22214739 6443326 58%
c i  6.15 4010 2250 0   2    8    0 42% 0 22214739 6443324 58%
c i  6.16 4010 2405 0   2   11    1 42% 0 22214739 6443300 58%
c i  6.17 4010 2350 0   3   13    2 42% 0 22214739 6443280 58%
c i  6.17 4010 2329 0   3   14    2 42% 0 22214739 6443259 58%
c i  6.62 4013 682 0  26  100   77 42% 2 22214739 6443243 58%
c i  6.62 4013 668 0  26  102   78 42% 2 22214739 6443237 58%
c i  6.66 4013 601 0  28  114   87 42% 2 22214739 6443236 58%
c i  6.67 4013 596 0  28  115   87 42% 2 22214739 6443235 58%
c i  6.68 4013 573 0  28  120   91 42% 2 22214739 6443234 58%
c i  6.76 4013 476 0  32  150  115 42% 2 22214739 6443233 58%
c i  6.76 4013 473 0  32  151  115 42% 2 22214739 6443231 58%
c i  6.90 4013 381 0  38  187  147 42% 2 22214739 6443230 58%
c i  6.97 4014 343 0  44  208  166 42% 2 22214739 6443229 58%
c 
c  seconds     reductions  redundant   irredundant
c          MB      restarts       trail          variables
c             level   conflicts       glue             remaining
c 
c i  7.20 4014 315 0  49  250  206 42% 2 22214739 6443223 58%
c i  7.23 4014 395 0  49  257  211 42% 2 22214739 6443221 58%
c i  7.28 4015 492 0  49  272  225 42% 2 22214739 6443220 58%
c i  7.53 4015 710 0  52  305  252 43% 2 22214739 6443219 58%
c i  7.55 4015 747 0  53  308  254 43% 2 22214739 6443214 58%
c i  7.55 4015 762 0  54  309  254 43% 2 22214739 6443197 58%
c i  7.55 4015 779 0  54  310  254 43% 2 22214739 6443191 58%
c i  7.55 4015 797 0  54  311  254 43% 2 22214739 6443185 58%
c i  7.59 4018 866 0  54  316  257 43% 2 22214739 6443184 58%
c i  8.11 4019 1105 0  65  358  294 43% 3 22214739 6443183 58%
c i  8.36 4019 984 0  76  400  334 43% 3 22214739 6443177 58%
c i  8.49 4019 923 0  80  427  359 43% 3 22214739 6443171 58%
c i  8.52 4020 858 0  80  466  393 43% 3 22214739 6443169 58%
c i  8.53 4020 858 0  80  467  393 43% 3 22214739 6443168 58%
c i  8.53 4020 862 0  80  468  393 43% 3 22214739 6443167 58%
c i  8.54 4020 884 0  80  473  397 43% 3 22214739 6443165 58%
c i  8.61 4020 1022 0  80  488  410 43% 3 22214739 6443163 58%
c i  8.72 4020 1318 0  80  509  427 43% 3 22214739 6443162 58%
c i  8.73 4020 1334 0  80  510  427 43% 3 22214739 6443161 58%
c i  8.73 4020 1350 0  80  511  427 43% 3 22214739 6443160 58%
c 
c  seconds      reductions  redundant   irredundant
c          MB       restarts       trail          variables
c             level    conflicts       glue             remaining
c 
c i  8.73 4020 1366 0  80  512  427 43% 3 22214739 6443159 58%
c i  8.73 4020 1382 0  80  513  427 43% 3 22214739 6443158 58%
c i  8.73 4020 1397 0  80  514  427 43% 3 22214739 6443157 58%
c i  8.73 4020 1413 0  80  515  427 43% 3 22214739 6443156 58%
... skipped 1309818 lines ...
v -11033063 11033064 -11033065 -11033066 11033067 -11033068 -11033069 11033070
v -11033071 -11033072 11033073 -11033074 -11033075 11033076 -11033077
v -11033078 11033079 -11033080 -11033081 11033082 -11033083 -11033084 11033085
v -11033086 -11033087 11033088 -11033089 -11033090 11033091 -11033092
v -11033093 11033094 -11033095 -11033096 11033097 -11033098 -11033099 11033100
v -11033101 -11033102 11033103 -11033104 -11033105 11033106 -11033107
v -11033108 11033109 -11033110 -11033111 11033112 -11033113 -11033114 11033115
v -11033116 -11033117 11033118 -11033119 -11033120 11033121 -11033122
v -11033123 11033124 -11033125 -11033126 11033127 -11033128 -11033129 11033130
v -11033131 -11033132 11033133 -11033134 -11033135 11033136 -11033137
v -11033138 11033139 -11033140 -11033141 11033142 -11033143 -11033144 11033145
v -11033146 -11033147 11033148 -11033149 -11033150 11033151 -11033152
v -11033153 11033154 -11033155 -11033156 11033157 -11033158 -11033159 11033160
v -11033161 -11033162 11033163 -11033164 -11033165 11033166 -11033167
v -11033168 11033169 -11033170 -11033171 11033172 -11033173 -11033174 11033175
v -11033176 -11033177 11033178 -11033179 -11033180 11033181 -11033182
v -11033183 11033184 -11033185 -11033186 11033187 -11033188 -11033189 11033190
v -11033191 -11033192 11033193 -11033194 -11033195 11033196 -11033197
v -11033198 11033199 -11033200 -11033201 11033202 -11033203 -11033204 11033205
v -11033206 -11033207 11033208 -11033209 -11033210 11033211 -11033212
v -11033213 11033214 -11033215 -11033216 11033217 -11033218 -11033219 11033220
v -11033221 -11033222 11033223 -11033224 -11033225 11033226 -11033227
v -11033228 11033229 -11033230 -11033231 11033232 -11033233 -11033234 11033235
v -11033236 -11033237 11033238 -11033239 -11033240 11033241 -11033242
v -11033243 11033244 -11033245 -11033246 11033247 -11033248 -11033249 11033250
v -11033251 -11033252 11033253 -11033254 -11033255 11033256 -11033257
v -11033258 11033259 -11033260 -11033261 11033262 -11033263 -11033264 11033265
v -11033266 -11033267 11033268 -11033269 -11033270 11033271 11033272 -11033273
v -11033274 -11033275 11033276 -11033277 -11033278 11033279 -11033280
v -11033281 11033282 -11033283 -11033284 11033285 11033286 -11033287 -11033288
v -11033289 11033290 -11033291 -11033292 11033293 -11033294 -11033295 11033296
v -11033297 -11033298 11033299 11033300 -11033301 -11033302 -11033303 11033304
v -11033305 -11033306 11033307 -11033308 -11033309 11033310 -11033311
v -11033312 11033313 11033314 -11033315 -11033316 -11033317 11033318 -11033319
v -11033320 11033321 -11033322 -11033323 11033324 -11033325 -11033326 11033327
v 11033328 -11033329 -11033330 -11033331 11033332 -11033333 -11033334 11033335
v -11033336 -11033337 11033338 11033339 -11033340 -11033341 -11033342 11033343
v 11033344 -11033345 -11033346 -11033347 11033348 -11033349 11033350 -11033351
v -11033352 -11033353 11033354 -11033355 -11033356 -11033357 11033358
v -11033359 11033360 -11033361 11033362 -11033363 -11033364 -11033365 11033366
v 11033367 11033368 -11033369 -11033370 -11033371 -11033372 -11033373 11033374
v -11033375 -11033376 -11033377 11033378 -11033379 -11033380 -11033381
v 11033382 -11033383 -11033384 -11033385 11033386 -11033387 -11033388
v -11033389 11033390 11033391 -11033392 -11033393 11033394 11033395 -11033396
v -11033397 11033398 11033399 -11033400 -11033401 11033402 11033403 11033404
v -11033405 -11033406 11033407 -11033408 -11033409 11033410 -11033411
v -11033412 11033413 -11033414 -11033415 11033416 -11033417 -11033418 11033419
v -11033420 -11033421 11033422 -11033423 -11033424 11033425 -11033426
v -11033427 -11033428 11033429 -11033430 -11033431 11033432 -11033433
v -11033434 11033435 11033436 -11033437 -11033438 -11033439 11033440 11033441
v -11033442 -11033443 -11033444 11033445 -11033446 -11033447 11033448
v -11033449 -11033450 11033451 -11033452 -11033453 11033454 -11033455 0
c 
c --- [ run-time profiling ] -------------------------------------------------
c 
c process time taken by individual solving procedures
c (percentage relative to process time for solving)
c 
c        11.30  100.00% search
c         6.27   55.49% stable
c         5.99   53.06% parse
c         4.93   43.63% unstable
c         0.10    0.87% lucky
c         0.00    0.00% simplify
c   =================================
c        11.30   63.14% solve
c 
c last line shows process time for solving
c (percentage relative to total process time)
c 
c --- [ statistics ] ---------------------------------------------------------
c 
c chronological:               960        65.93 %  of conflicts
c conflicts:                  1456       128.87    per second
c decisions:                380170     33649.63    per second
c fixed:                   4567969        41.40 %  of all variables
c learned:                    1399        96.09 %  per conflict
c learned_lits:              13859       100.00 %  learned literals
c minimized:                     0         0.00 %  learned literals
c shrunken:                   1408        10.16 %  learned literals
c minishrunken:               1054         7.61 %  learned literals
c otfs:                         11         0.76 %  of conflict
c propagations:           41483470         3.67 M  per second
c rephased:                      1      1456.00    interval
c restarts:                    155         9.39    interval
c stabilizing:                   1        31.25 %  of conflicts
c subsumed:                     50         0.00 %  of all clauses
c strengthened:                 11         0.00 %  of all clauses
c 
c seconds are measured in process time for solving
c 
c --- [ resources ] ----------------------------------------------------------
c 
c total process time since initialization:        17.89    seconds
c total real time since initialization:           18.11    seconds
c maximum resident set size of process:         4084.53    MB
c 
c --- [ shutting down ] ------------------------------------------------------
c 
c exit 10
